8045
28, 27, 26, 47, 13, 14, 52, 11, 51, 4, 25, 46, 24, 48, 5, 6, 15, 38, 37, 40, 39, 36, 35, 34, 44, 16, 29, 50, 20, 30, 23, 21, 42, 2, 7, 17, 3, 18, 31, 22, 1, 49, 32, 45, 19, 41, 8, 9, 10, 43, 33, 12
